7
0, 522, 569, 248, 273, 507, 309
522, 0, 707, 626, 588, 115, 369
569, 707, 0, 817, 302, 602, 787
248, 626, 817, 0, 518, 654, 278
273, 588, 302, 518, 0, 519, 535
507, 115, 602, 654, 519, 0, 426
309, 369, 787, 278, 535, 426, 0
